p cnf 1302
-17 -409
-18 -412
-19 -415
-20 -418
-21 -421
-22 -424
-23 -427
-24 -430
-25 -433
-26 -436
-27 -439
-28 -442
-29 -445
-30 -448
-31 -451
-32 -454
-33 455
-34 456
-35 457
-36 458
-37 459
-38 460
-39 461
-40 462
-41 463
-42 464
-43 465
-44 466
-45 467
-46 -18
-46 -19
18 19 46
-47 -20
-47 -21
20 21 47
-48 -22
-48 -23
22 23 48
-49 -24
-49 -25
24 25 49
-50 -26
-50 -27
26 27 50
-51 -28
-51 -29
28 29 51
-52 -30
-52 -31
30 31 52
-53 -32
-53 -33
32 33 53
-54 -34
-54 -35
34 35 54
-55 -36
-55 -37
36 37 55
-56 -38
-56 -39
38 39 56
-57 -40
-57 -41
40 41 57
-58 -42
-58 -43
42 43 58
-59 -44
-59 -45
44 45 59
-60 46
-60 47
-46 -47 60
-61 48
-61 49
-48 -49 61
-62 50
-62 51
-50 -51 62
-63 52
-63 53
-52 -53 63
-64 54
-64 55
-54 -55 64
-65 56
-65 57
-56 -57 65
-66 58
-66 59
-58 -59 66
-67 60
-67 61
-60 -61 67
-68 62
-68 63
-62 -63 68
-69 64
-69 65
-64 -65 69
-70 67
-70 68
-67 -68 70
-71 66
-71 69
-66 -69 71
-72 70
-72 71
-70 -71 72
-73 -17
-73 18
17 -18 73
-74 17
-74 -18
-17 18 74
-75 -73
-75 -74
73 74 75
-76 17
-76 18
-17 -18 76
-77 -17
-77 -75
17 75 77
-78 17
-78 75
-17 -75 78
-79 -77
-79 -78
77 78 79
-80 17
-80 -75
-17 75 80
-81 -76
-81 -80
76 80 81
-82 -18
-82 19
18 -19 82
-83 18
-83 -19
-18 19 83
-84 -82
-84 -83
82 83 84
-85 18
-85 19
-18 -19 85
-86 81
-86 -84
-81 84 86
-87 -81
-87 84
81 -84 87
-88 -86
-88 -87
86 87 88
-89 -81
-89 -84
81 84 89
-90 -85
-90 -89
85 89 90
-91 -19
-91 20
19 -20 91
-92 19
-92 -20
-19 20 92
-93 -91
-93 -92
91 92 93
-94 19
-94 20
-19 -20 94
-95 90
-95 -93
-90 93 95
-96 -90
-96 93
90 -93 96
-97 -95
-97 -96
95 96 97
-98 -90
-98 -93
90 93 98
-99 -94
-99 -98
94 98 99
-100 -20
-100 21
20 -21 100
-101 20
-101 -21
-20 21 101
-102 -100
-102 -101
100 101 102
-103 20
-103 21
-20 -21 103
-104 99
-104 -102
-99 102 104
-105 -99
-105 102
99 -102 105
-106 -104
-106 -105
104 105 106
-107 -99
-107 -102
99 102 107
-108 -103
-108 -107
103 107 108
-109 -21
-109 22
21 -22 109
-110 21
-110 -22
-21 22 110
-111 -109
-111 -110
109 110 111
-112 21
-112 22
-21 -22 112
-113 108
-113 -111
-108 111 113
-114 -108
-114 111
108 -111 114
-115 -113
-115 -114
113 114 115
-116 -108
-116 -111
108 111 116
-117 -112
-117 -116
112 116 117
-118 -22
-118 23
22 -23 118
-119 22
-119 -23
-22 23 119
-120 -118
-120 -119
118 119 120
-121 22
-121 23
-22 -23 121
-122 117
-122 -120
-117 120 122
-123 -117
-123 120
117 -120 123
-124 -122
-124 -123
122 123 124
-125 -117
-125 -120
117 120 125
-126 -121
-126 -125
121 125 126
-127 -23
-127 24
23 -24 127
-128 23
-128 -24
-23 24 128
-129 -127
-129 -128
127 128 129
-130 23
-130 24
-23 -24 130
-131 126
-131 -129
-126 129 131
-132 -126
-132 129
126 -129 132
-133 -131
-133 -132
131 132 133
-134 -126
-134 -129
126 129 134
-135 -130
-135 -134
130 134 135
-136 -24
-136 25
24 -25 136
-137 24
-137 -25
-24 25 137
-138 -136
-138 -137
136 137 138
-139 24
-139 25
-24 -25 139
-140 135
-140 -138
-135 138 140
-141 -135
-141 138
135 -138 141
-142 -140
-142 -141
140 141 142
-143 -135
-143 -138
135 138 143
-144 -139
-144 -143
139 143 144
-145 -25
-145 26
25 -26 145
-146 25
-146 -26
-25 26 146
-147 -145
-147 -146
145 146 147
-148 25
-148 26
-25 -26 148
-149 144
-149 -147
-144 147 149
-150 -144
-150 147
144 -147 150
-151 -149
-151 -150
149 150 151
-152 -144
-152 -147
144 147 152
-153 -148
-153 -152
148 152 153
-154 -26
-154 27
26 -27 154
-155 26
-155 -27
-26 27 155
-156 -154
-156 -155
154 155 156
-157 26
-157 27
-26 -27 157
-158 153
-158 -156
-153 156 158
-159 -153
-159 156
153 -156 159
-160 -158
-160 -159
158 159 160
-161 -153
-161 -156
153 156 161
-162 -157
-162 -161
157 161 162
-163 -27
-163 28
27 -28 163
-164 27
-164 -28
-27 28 164
-165 -163
-165 -164
163 164 165
-166 27
-166 28
-27 -28 166
-167 162
-167 -165
-162 165 167
-168 -162
-168 165
162 -165 168
-169 -167
-169 -168
167 168 169
-170 -162
-170 -165
162 165 170
-171 -166
-171 -170
166 170 171
-172 -28
-172 29
28 -29 172
-173 28
-173 -29
-28 29 173
-174 -172
-174 -173
172 173 174
-175 28
-175 29
-28 -29 175
-176 171
-176 -174
-171 174 176
-177 -171
-177 174
171 -174 177
-178 -176
-178 -177
176 177 178
-179 -171
-179 -174
171 174 179
-180 -175
-180 -179
175 179 180
-181 -29
-181 30
29 -30 181
-182 29
-182 -30
-29 30 182
-183 -181
-183 -182
181 182 183
-184 29
-184 30
-29 -30 184
-185 180
-185 -183
-180 183 185
-186 -180
-186 183
180 -183 186
-187 -185
-187 -186
185 186 187
-188 -180
-188 -183
180 183 188
-189 -184
-189 -188
184 188 189
-190 -30
-190 31
30 -31 190
-191 30
-191 -31
-30 31 191
-192 -190
-192 -191
190 191 192
-193 30
-193 31
-30 -31 193
-194 189
-194 -192
-189 192 194
-195 -189
-195 192
189 -192 195
-196 -194
-196 -195
194 195 196
-197 -189
-197 -192
189 192 197
-198 -193
-198 -197
193 197 198
-199 -31
-199 32
31 -32 199
-200 31
-200 -32
-31 32 200
-201 -199
-201 -200
199 200 201
-202 31
-202 32
-31 -32 202
-203 198
-203 -201
-198 201 203
-204 -198
-204 201
198 -201 204
-205 -203
-205 -204
203 204 205
-206 -198
-206 -201
198 201 206
-207 -202
-207 -206
202 206 207
-208 -32
-208 33
32 -33 208
-209 32
-209 -33
-32 33 209
-210 -208
-210 -209
208 209 210
-211 32
-211 33
-32 -33 211
-212 207
-212 -210
-207 210 212
-213 -207
-213 210
207 -210 213
-214 -212
-214 -213
212 213 214
-215 -207
-215 -210
207 210 215
-216 -211
-216 -215
211 215 216
-217 -33
-217 34
33 -34 217
-218 33
-218 -34
-33 34 218
-219 -217
-219 -218
217 218 219
-220 33
-220 34
-33 -34 220
-221 216
-221 -219
-216 219 221
-222 -216
-222 219
216 -219 222
-223 -221
-223 -222
221 222 223
-224 -216
-224 -219
216 219 224
-225 -220
-225 -224
220 224 225
-226 -34
-226 35
34 -35 226
-227 34
-227 -35
-34 35 227
-228 -226
-228 -227
226 227 228
-229 34
-229 35
-34 -35 229
-230 225
-230 -228
-225 228 230
-231 -225
-231 228
225 -228 231
-232 -230
-232 -231
230 231 232
-233 -225
-233 -228
225 228 233
-234 -229
-234 -233
229 233 234
-235 -35
-235 36
35 -36 235
-236 35
-236 -36
-35 36 236
-237 -235
-237 -236
235 236 237
-238 35
-238 36
-35 -36 238
-239 234
-239 -237
-234 237 239
-240 -234
-240 237
234 -237 240
-241 -239
-241 -240
239 240 241
-242 -234
-242 -237
234 237 242
-243 -238
-243 -242
238 242 243
-244 -36
-244 37
36 -37 244
-245 36
-245 -37
-36 37 245
-246 -244
-246 -245
244 245 246
-247 36
-247 37
-36 -37 247
-248 243
-248 -246
-243 246 248
-249 -243
-249 246
243 -246 249
-250 -248
-250 -249
248 249 250
-251 -243
-251 -246
243 246 251
-252 -247
-252 -251
247 251 252
-253 -37
-253 38
37 -38 253
-254 37
-254 -38
-37 38 254
-255 -253
-255 -254
253 254 255
-256 37
-256 38
-37 -38 256
-257 252
-257 -255
-252 255 257
-258 -252
-258 255
252 -255 258
-259 -257
-259 -258
257 258 259
-260 -252
-260 -255
252 255 260
-261 -256
-261 -260
256 260 261
-262 -38
-262 39
38 -39 262
-263 38
-263 -39
-38 39 263
-264 -262
-264 -263
262 263 264
-265 38
-265 39
-38 -39 265
-266 261
-266 -264
-261 264 266
-267 -261
-267 264
261 -264 267
-268 -266
-268 -267
266 267 268
-269 -261
-269 -264
261 264 269
-270 -265
-270 -269
265 269 270
-271 -39
-271 40
39 -40 271
-272 39
-272 -40
-39 40 272
-273 -271
-273 -272
271 272 273
-274 39
-274 40
-39 -40 274
-275 270
-275 -273
-270 273 275
-276 -270
-276 273
270 -273 276
-277 -275
-277 -276
275 276 277
-278 -270
-278 -273
270 273 278
-279 -274
-279 -278
274 278 279
-280 -40
-280 41
40 -41 280
-281 40
-281 -41
-40 41 281
-282 -280
-282 -281
280 281 282
-283 40
-283 41
-40 -41 283
-284 279
-284 -282
-279 282 284
-285 -279
-285 282
279 -282 285
-286 -284
-286 -285
284 285 286
-287 -279
-287 -282
279 282 287
-288 -283
-288 -287
283 287 288
-289 -41
-289 42
41 -42 289
-290 41
-290 -42
-41 42 290
-291 -289
-291 -290
289 290 291
-292 41
-292 42
-41 -42 292
-293 288
-293 -291
-288 291 293
-294 -288
-294 291
288 -291 294
-295 -293
-295 -294
293 294 295
-296 -288
-296 -291
288 291 296
-297 -292
-297 -296
292 296 297
-298 -42
-298 43
42 -43 298
-299 42
-299 -43
-42 43 299
-300 -298
-300 -299
298 299 300
-301 42
-301 43
-42 -43 301
-302 297
-302 -300
-297 300 302
-303 -297
-303 300
297 -300 303
-304 -302
-304 -303
302 303 304
-305 -297
-305 -300
297 300 305
-306 -301
-306 -305
301 305 306
-307 -43
-307 44
43 -44 307
-308 43
-308 -44
-43 44 308
-309 -307
-309 -308
307 308 309
-310 43
-310 44
-43 -44 310
-311 306
-311 -309
-306 309 311
-312 -306
-312 309
306 -309 312
-313 -311
-313 -312
311 312 313
-314 -306
-314 -309
306 309 314
-315 -310
-315 -314
310 314 315
-316 -44
-316 45
44 -45 316
-317 44
-317 -45
-44 45 317
-318 -316
-318 -317
316 317 318
-319 44
-319 45
-44 -45 319
-320 315
-320 -318
-315 318 320
-321 -315
-321 318
315 -318 321
-322 -320
-322 -321
320 321 322
-323 -315
-323 -318
315 318 323
-324 -319
-324 -323
319 323 324
-325 17
-325 -79
-17 79 325
-326 -17
-326 19
17 -19 326
-327 -325
-327 -326
325 326 327
-328 17
-328 -88
-17 88 328
-329 -17
-329 20
17 -20 329
-330 -328
-330 -329
328 329 330
-331 17
-331 -97
-17 97 331
-332 -17
-332 21
17 -21 332
-333 -331
-333 -332
331 332 333
-334 17
-334 -106
-17 106 334
-335 -17
-335 22
17 -22 335
-336 -334
-336 -335
334 335 336
-337 17
-337 -115
-17 115 337
-338 -17
-338 23
17 -23 338
-339 -337
-339 -338
337 338 339
-340 17
-340 -124
-17 124 340
-341 -17
-341 24
17 -24 341
-342 -340
-342 -341
340 341 342
-343 17
-343 -133
-17 133 343
-344 -17
-344 25
17 -25 344
-345 -343
-345 -344
343 344 345
-346 17
-346 -142
-17 142 346
-347 -17
-347 26
17 -26 347
-348 -346
-348 -347
346 347 348
-349 17
-349 -151
-17 151 349
-350 -17
-350 27
17 -27 350
-351 -349
-351 -350
349 350 351
-352 17
-352 -160
-17 160 352
-353 -17
-353 28
17 -28 353
-354 -352
-354 -353
352 353 354
-355 17
-355 -169
-17 169 355
-356 -17
-356 29
17 -29 356
-357 -355
-357 -356
355 356 357
-358 17
-358 -178
-17 178 358
-359 -17
-359 30
17 -30 359
-360 -358
-360 -359
358 359 360
-361 17
-361 -187
-17 187 361
-362 -17
-362 31
17 -31 362
-363 -361
-363 -362
361 362 363
-364 17
-364 -196
-17 196 364
-365 -17
-365 32
17 -32 365
-366 -364
-366 -365
364 365 366
-367 17
-367 -205
-17 205 367
-368 -17
-368 33
17 -33 368
-369 -367
-369 -368
367 368 369
-370 17
-370 -214
-17 214 370
-371 -17
-371 34
17 -34 371
-372 -370
-372 -371
370 371 372
-373 17
-373 -223
-17 223 373
-374 -17
-374 35
17 -35 374
-375 -373
-375 -374
373 374 375
-376 17
-376 -232
-17 232 376
-377 -17
-377 36
17 -36 377
-378 -376
-378 -377
376 377 378
-379 17
-379 -241
-17 241 379
-380 -17
-380 37
17 -37 380
-381 -379
-381 -380
379 380 381
-382 17
-382 -250
-17 250 382
-383 -17
-383 38
17 -38 383
-384 -382
-384 -383
382 383 384
-385 17
-385 -259
-17 259 385
-386 -17
-386 39
17 -39 386
-387 -385
-387 -386
385 386 387
-388 17
-388 -268
-17 268 388
-389 -17
-389 40
17 -40 389
-390 -388
-390 -389
388 389 390
-391 17
-391 -277
-17 277 391
-392 -17
-392 41
17 -41 392
-393 -391
-393 -392
391 392 393
-394 17
-394 -286
-17 286 394
-395 -17
-395 42
17 -42 395
-396 -394
-396 -395
394 395 396
-397 17
-397 -295
-17 295 397
-398 -17
-398 43
17 -43 398
-399 -397
-399 -398
397 398 399
-400 17
-400 -304
-17 304 400
-401 -17
-401 44
17 -44 401
-402 -400
-402 -401
400 401 402
-403 17
-403 -313
-17 313 403
-404 -17
-404 45
17 -45 404
-405 -403
-405 -404
403 404 405
-406 17
-406 -322
-17 322 406
-407 1
-407 72
-1 -72 407
-408 -72
-408 73
72 -73 408
-409 -407
-409 -408
407 408 409
-410 2
-410 72
-2 -72 410
-411 -72
-411 -327
72 327 411
-412 -410
-412 -411
410 411 412
-413 3
-413 72
-3 -72 413
-414 -72
-414 -330
72 330 414
-415 -413
-415 -414
413 414 415
-416 4
-416 72
-4 -72 416
-417 -72
-417 -333
72 333 417
-418 -416
-418 -417
416 417 418
-419 5
-419 72
-5 -72 419
-420 -72
-420 -336
72 336 420
-421 -419
-421 -420
419 420 421
-422 6
-422 72
-6 -72 422
-423 -72
-423 -339
72 339 423
-424 -422
-424 -423
422 423 424
-425 7
-425 72
-7 -72 425
-426 -72
-426 -342
72 342 426
-427 -425
-427 -426
425 426 427
-428 8
-428 72
-8 -72 428
-429 -72
-429 -345
72 345 429
-430 -428
-430 -429
428 429 430
-431 9
-431 72
-9 -72 431
-432 -72
-432 -348
72 348 432
-433 -431
-433 -432
431 432 433
-434 10
-434 72
-10 -72 434
-435 -72
-435 -351
72 351 435
-436 -434
-436 -435
434 435 436
-437 11
-437 72
-11 -72 437
-438 -72
-438 -354
72 354 438
-439 -437
-439 -438
437 438 439
-440 12
-440 72
-12 -72 440
-441 -72
-441 -357
72 357 441
-442 -440
-442 -441
440 441 442
-443 13
-443 72
-13 -72 443
-444 -72
-444 -360
72 360 444
-445 -443
-445 -444
443 444 445
-446 14
-446 72
-14 -72 446
-447 -72
-447 -363
72 363 447
-448 -446
-448 -447
446 447 448
-449 15
-449 72
-15 -72 449
-450 -72
-450 -366
72 366 450
-451 -449
-451 -450
449 450 451
-452 16
-452 72
-16 -72 452
-453 -72
-453 -369
72 369 453
-454 -452
-454 -453
452 453 454
-455 -72
-455 -372
72 372 455
-456 -72
-456 -375
72 375 456
-457 -72
-457 -378
72 378 457
-458 -72
-458 -381
72 381 458
-459 -72
-459 -384
72 384 459
-460 -72
-460 -387
72 387 460
-461 -72
-461 -390
72 390 461
-462 -72
-462 -393
72 393 462
-463 -72
-463 -396
72 396 463
-464 -72
-464 -399
72 399 464
-465 -72
-465 -402
72 402 465
-466 -72
-466 -405
72 405 466
-467 -72
-467 406
72 -406 467
-468 -45
-468 324
45 -324 468
-469 17
-469 -468
-17 468 469
469
